* #variable= 16 #constraint= 7 #product= 9 sizeproduct= 44
min: +10 x5 x7 x9 x10 x14 x15 x16 +7 x1 x2 x3 x4 x8 x11 +1 x3 x4 x6 x7 x8 +12 x3 x4 x8 x11 +8 x6 x7 x8 x12 +3 x6 x7 x9 x14 x16 +1 x9 x10 x14 x16 +5 x5 x10 x14 x15 x16 +3 x1 x2 x11 x12 ;
-3 x5 x7 x9 x10 x14 x15 x16 +12 x1 x2 x3 x4 x8 x11 +8 x3 x4 x6 x7 x8 -1 x3 x4 x8 x11 +7 x1 x2 x11 x12 -2 x13 x14 x15 x16 >= 2 ;
-1 x1 x2 x3 x4 x8 x11 +10 x3 x4 x6 x7 x8 +5 x6 x7 x8 x12 -1 x6 x7 x9 x14 x16 -7 x9 x10 x14 x16 -1 x5 x10 x14 x15 x16 >= 1 ;
-5 x5 x7 x9 x10 x14 x15 x16 +3 x1 x2 x3 x4 x8 x11 +1 x3 x4 x6 x7 x8 +2 x5 x10 x14 x15 x16 -1 x13 x14 x15 x16 >= 1 ;
-3 x1 x2 x3 x4 x8 x11 +5 x5 x7 x9 x10 x14 x15 x16 -1 x3 x4 x6 x7 x8 -2 x5 x10 x14 x15 x16 +1 x13 x14 x15 x16 >= -1 ;
+4 x3 x4 x6 x7 x8 +2 x3 x4 x8 x11 +5 x6 x7 x9 x14 x16 -1 x9 x10 x14 x16 +9 x5 x10 x14 x15 x16 +2 x1 x2 x11 x12 >= 3 ;
-9 x1 x2 x3 x4 x8 x11 +12 x3 x4 x8 x11 +7 x6 x7 x8 x12 -6 x6 x7 x9 x14 x16 -2 x5 x10 x14 x15 x16 +15 x1 x2 x11 x12 -3 x13 x14 x15 x16 >= 7 ;
-5 x1 x2 x3 x4 x8 x11 +8 x5 x7 x9 x10 x14 x15 x16 -2 x3 x4 x6 x7 x8 +7 x3 x4 x8 x11 +1 x6 x7 x8 x12 +5 x9 x10 x14 x16 +10 x1 x2 x11 x12 >= 1 ;
